webassembly/ejemplos_dzn/7/folder7_json_48.dzn
TERM = { '.', 's(2)', 'in_1', 'local_0', 'local_1', 'in_2', 'in_3', 's(1)', 's(0)', 'in_0'};
null = '.';
s = 7;
n = 9;
ndeps = 3;
max_registers_sz = 3;
NR = 0;
registers = [| |];
dependencies = [|'i32.store8_0', 'i32.store_1', |'i32.store_1', 'i32.load8_s_5', |'i32.store_1', 'i32.load8_s_6'|];
GET_ENUM = { GET1, GET2, GET3};
SET_ENUM = { SET1, SET2, SET3};
TEE_ENUM = { TEE1, TEE2, TEE3};
N = 7;
OP = { 'i32.const_0', 'i32.store8_0', 'i32.store_1', 'i32.load8_s_5', 'i32.load8_s_6', 'local.get_0', 'local.get_1' };
in_ops = [0, 2, 2, 1, 1, 0, 0 ];
out_ops = [1, 0, 0, 1, 1, 1, 1 ];
in1 = ['.', 'in_0', 'in_2', 'local_0', 's(0)', '.', '.' ];
in2 = ['.', 'in_1', 'in_3', '.', '.', '.', '.' ];
in3 = ['.', '.', '.', '.', '.', '.', '.' ];
out1 = ['s(2)', '.', '.', 's(0)', 's(1)', 'local_0', 'local_1' ];
out2 = ['.', '.', '.', '.', '.', '.', '.' ];
out3 = ['.', '.', '.', '.', '.', '.', '.' ];
comm = [false, false, false, false, false, false, false ];
gas = [1, 1, 1, 1, 1, 1, 1 ];
sz = [1, 1, 1, 1, 1, 1, 1 ];
stor = [false, true, true, false, false, false, false ];
lb = [ 1, 1, 1, 1, 1, 1, 1 ];
ub = [ 7, 7, 7, 7, 7, 7, 7 ];
startstack = [ 'in_0', 'in_1', 'in_2', 'in_3', null, null, null, null, null ];
endstack = [ 's(1)', 's(2)', 'local_1', null, null, null, null, null, null ];
